100	5
25	200
20
30
10
40
20
20
20
10
20
30
40
20
10
10
20
20
20
20
40
10
10
40
30
10
20
30
20
10
10
10
20
10
10
30
20
40
10
30
10
30
20
10
20
10
10
10
10
10
10
30
19
3
5
16
16
19
23
20
19
17
9
3
6
17
16
16
9
21
27
23
14
8
5
8
16
31
7
27
30
13
10
9
14
18
2
28
13
19
25
6
13
14
3
23
6
26
35
9
15
3
40	50	0	240	0	0
25	85	125	191	10	2
22	75	32	97	10	1
22	85	101	146	10	3
20	80	71	193	10	2
20	85	40	113	10	2
18	75	55	164	10	2
15	75	69	118	10	2
15	80	56	155	10	1
10	35	51	160	10	2
10	40	90	177	10	1
8	40	33	152	10	1
8	45	49	108	10	3
5	35	62	191	10	3
5	45	35	117	10	3
2	40	39	161	10	1
0	40	59	114	10	1
0	45	60	189	10	1
44	5	79	124	10	2
42	10	58	115	10	2
42	15	111	162	10	3
40	5	52	111	10	2
40	15	55	158	10	1
38	5	45	164	10	3
38	15	128	194	10	1
35	5	54	184	10	2
95	30	105	154	10	3
95	35	57	172	10	3
92	30	55	120	10	2
90	35	52	112	10	1
88	30	52	159	10	1
88	35	50	110	10	1
87	30	116	175	10	2
85	25	51	178	10	3
85	35	100	151	10	3
67	85	61	185	10	3
65	85	43	186	10	2
65	82	113	164	10	2
62	80	37	148	10	2
60	80	36	191	10	1
60	85	50	149	10	1
58	75	48	165	10	1
55	80	33	166	10	1
55	85	117	168	10	3
55	82	35	148	10	3
20	82	37	177	10	2
18	80	98	157	10	3
2	45	38	109	10	2
42	5	120	184	10	3
42	12	79	158	10	3
72	35	104	157	10	2
55	20	69	126	10	2
25	30	36	97	10	3
20	50	57	154	10	1
55	60	127	180	10	3
30	60	95	214	10	1
50	35	88	201	10	3
30	25	82	139	10	2
15	10	56	182	10	2
10	20	42	125	10	2
15	60	137	202	10	1
45	65	55	106	10	1
65	35	29	158	10	3
65	20	39	108	10	3
45	30	20	139	10	2
35	40	11	140	10	3
41	37	92	203	10	2
64	42	28	141	10	2
40	60	100	217	10	2
31	52	9	134	10	2
35	69	60	210	10	1
65	55	52	107	10	3
63	65	27	101	10	2
2	60	65	118	10	2
20	20	72	193	10	3
5	5	60	117	10	1
60	12	42	143	10	3
23	3	52	180	10	3
8	56	46	163	10	1
6	68	54	153	10	2
47	47	97	222	10	1
49	58	80	121	10	3
27	43	26	87	10	2
37	31	19	87	10	3
57	29	62	159	10	1
63	23	76	127	10	1
21	24	77	126	10	1
12	24	68	141	10	1
24	58	24	139	10	2
67	5	105	177	10	2
37	47	74	127	10	2
49	42	151	212	10	2
53	43	14	155	10	1
61	52	69	208	10	1
57	48	86	133	10	3
56	37	20	84	10	1
55	54	121	172	10	2
4	18	112	157	10	3
26	52	30	91	10	2
26	35	37	146	10	3
31	67	66	210	10	2
31	41	0	240	5	4
59	25	0	240	5	4
27	9	0	240	5	4
70	58	0	240	5	4
28	48	0	240	5	4
0	0	0	0	1	
0	0	0	0	0	
0	0	0	0	1	
0	0	0	0	1	
0	0	0	0	1	
0	0	0	0	1	
0	0	0	0	1	
0	0	0	0	0	
1	0	0	0	0	
0	0	0	0	0	
0	0	0	0	0	
0	0	0	0	1	
0	0	0	0	1	
0	0	0	0	1	
0	0	0	0	0	
0	0	0	0	0	
0	0	0	0	0	
0	0	1	0	0	
0	0	1	0	0	
0	0	1	0	0	
0	0	1	0	0	
0	0	0	0	0	
0	0	1	0	0	
0	0	0	0	0	
0	0	1	0	0	
0	1	0	0	0	
0	0	0	1	0	
0	1	0	0	0	
0	0	0	0	0	
0	0	0	0	0	
0	0	0	0	0	
0	1	0	0	0	
0	1	0	0	0	
0	0	0	1	0	
0	0	0	1	0	
0	0	0	1	0	
0	0	0	1	0	
0	0	0	1	0	
0	0	0	0	0	
0	0	0	0	0	
0	0	0	0	0	
0	0	0	0	0	
0	0	0	1	0	
0	0	0	1	0	
0	0	0	0	1	
0	0	0	0	1	
0	0	0	0	1	
0	0	1	0	0	
0	0	1	0	0	
0	1	0	0	0	
0	1	0	0	0	
1	0	0	0	0	
0	0	0	0	0	
0	0	0	1	0	
0	0	0	0	0	
0	1	0	0	0	
1	0	0	0	0	
0	0	1	0	0	
0	0	1	0	0	
0	0	0	0	0	
0	0	0	0	0	
0	1	0	0	0	
0	1	0	0	0	
0	1	0	0	0	
1	0	0	0	0	
1	0	0	0	0	
0	0	0	1	0	
0	0	0	0	1	
0	0	0	0	1	
0	0	0	0	0	
0	0	0	1	0	
0	0	0	1	0	
0	0	0	0	1	
0	0	1	0	0	
0	0	0	0	0	
0	1	0	0	0	
0	0	1	0	0	
0	0	0	0	0	
0	0	0	0	1	
0	0	0	0	0	
0	0	0	1	0	
1	0	0	0	0	
1	0	0	0	0	
0	0	0	0	0	
0	0	0	0	0	
0	0	0	0	0	
0	0	0	0	0	
0	0	0	0	1	
0	1	0	0	0	
1	0	0	0	0	
1	0	0	0	0	
0	0	0	0	0	
0	0	0	0	0	
0	0	0	1	0	
0	0	0	0	0	
0	0	0	1	0	
0	0	1	0	0	
0	0	0	0	1	
1	0	0	0	0	
0	0	0	0	1	
